networks/zoo_73_1065/zoo_73_1065.txt
Number of groups: 36
Flow 1: {1 3} {3 2} {2 39} 
Flow 14: {21 16} {16 53} 
Flow 16: {19 18} {18 55} 
Flow 19: {22 59} 
Flow 26: {31 68} 
Flow 28: {32 33} {33 70} 
Flow 33: {2 3} {3 4} {4 41} 
Flow 69: {25 11} {11 48} 
Flow 83: {3 21} {21 27} {27 64} 
Flow 84: {6 5} {5 28} {28 65} 
Flow 90: {35 34} {34 71} 
Flow 116: {4 3} {3 31} {31 32} {32 69} 
Flow 134: {9 16} {16 53} 
Flow 190: {29 31} {31 35} {35 72} 
Flow 198: {8 7} {7 44} 
Flow 213: {7 29} {29 25} {25 26} {26 63} 
Flow 260: {10 9} {9 6} {6 43} 
Flow 285: {11 25} {25 21} {21 3} {3 1} {1 38} 
Flow 298: {9 10} {10 23} {23 60} 
Flow 319: {21 13} {13 50} 
Flow 321: {12 21} {21 15} 
Flow 365: {13 21} {21 31} {31 30} {30 67} 
Flow 388: {14 21} {21 25} {25 19} {19 56} 
Flow 417: {15 16} {16 53} 
Flow 418: {15 16} {16 17} {17 54} 
Flow 422: {15 16} {16 22} {22 59} 
Flow 434: {15 21} {21 9} {9 35} {35 36} {36 73} 
Flow 477: {17 16} {16 9} {9 46} 
Flow 503: {18 19} {19 25} {25 62} 
Flow 523: {21 16} {16 17} {17 54} 
Flow 550: {20 21} {21 14} {14 51} 
Flow 611: {22 23} {23 10} {10 47} 
Flow 613: {16 21} {21 12} {12 49} 
Flow 648: {23 22} {22 16} {16 15} {15 52} 
Flow 678: {24 27} {27 21} {21 58} 
Flow 747: {26 25} {25 29} {29 66} 
Flow 790: {28 5} {5 42} 
Flow 801: {5 6} {6 9} {9 16} {16 53} 
Flow 851: {30 31} {31 3} {3 40} 
Flow 856: {30 31} {31 29} {29 7} {7 8} {8 45} 
Flow 897: {31 21} {21 20} {20 57} 
Flow 919: {7 8} {8 45} 
Flow 919: {32 31} Flow 956: {33 32} {32 31} {31 68} 
Flow 958: {31 3} {3 40} 
Flow 958: {34 35} Flow 963: {34 35} {35 9} {9 21} {21 13} {13 50} 
Flow 1037: {37 36} {36 35} {35 31} {31 3} {3 40} 
Flow 1054: {36 35} {35 9} {9 16} Flow 1061: {35 31} {31 68} 
Time taken running everything: 84 seconds
