networks/zoo_73_1065/zoo_73_1065.sol
<?xml version = "1.0" encoding="UTF-8" standalone="yes"?>
<CPLEXSolution version="1.2">
 <header
   problemName="networks/zoo_73_1065/zoo_73_1065.lp"
   solutionName="incumbent"
   solutionIndex="-1"
   objectiveValue="36"
   solutionTypeValue="3"
   solutionTypeString="primal"
   solutionStatusValue="101"
   solutionStatusString="integer optimal solution"
   solutionMethodString="mip"
   primalFeasible="1"
   dualFeasible="1"
   MIPNodes="1580"
   MIPIterations="105117"
   writeLevel="3"/>
 <quality
   epInt="1.0000000000000001e-05"
   epRHS="9.9999999999999995e-07"
   maxIntInfeas="1.1102230246251565e-16"
   maxPrimalInfeas="1.1102230246251565e-16"
   maxX="4"
   maxSlack="10"/>
 <variables>
  <variable name="Y(7,8)" index="439" value="1"/>
  <variable name="Y(11,13)" index="732" value="1"/>
  <variable name="Y(17,19)" index="1170" value="1"/>
  <variable name="Y(28,33)" index="1976" value="1"/>
  <variable name="Y(31,1)" index="2160" value="1"/>
  <variable name="Y(90,34)" index="6441" value="1"/>
  <variable name="Y(97,7)" index="6918" value="1"/>
  <variable name="Y(169,11)" index="12106" value="1"/>
  <variable name="Y(218,32)" index="15655" value="1"/>
  <variable name="Y(273,22)" index="19605" value="1"/>
  <variable name="Y(293,16)" index="21039" value="1"/>
  <variable name="Y(321,21)" index="23060" value="1"/>
  <variable name="Y(343,5)" index="24628" value="1"/>
  <variable name="Y(380,10)" index="27297" value="1"/>
  <variable name="Y(382,12)" index="27443" value="1"/>
  <variable name="Y(423,23)" index="30406" value="1"/>
  <variable name="Y(427,28)" index="30699" value="1"/>
  <variable name="Y(429,30)" index="30845" value="1"/>
  <variable name="Y(438,4)" index="31467" value="1"/>
  <variable name="Y(453,20)" index="32563" value="1"/>
  <variable name="Y(497,35)" index="35746" value="1"/>
  <variable name="Y(503,25)" index="36168" value="1"/>
  <variable name="Y(550,14)" index="39541" value="1"/>
  <variable name="Y(562,29)" index="40420" value="1"/>
  <variable name="Y(603,2)" index="43345" value="1"/>
  <variable name="Y(616,15)" index="44294" value="1"/>
  <variable name="Y(657,27)" index="47258" value="1"/>
  <variable name="Y(678,21)" index="48764" value="1"/>
  <variable name="Y(723,36)" index="52019" value="1"/>
  <variable name="Y(740,18)" index="53225" value="1"/>
  <variable name="Y(791,6)" index="56885" value="1"/>
  <variable name="Y(802,17)" index="57688" value="1"/>
  <variable name="Y(870,26)" index="62593" value="1"/>
  <variable name="Y(956,31)" index="68790" value="1"/>
  <variable name="Y(958,3)" index="68906" value="1"/>
  <variable name="Y(1043,9)" index="75032" value="1"/>
  <variable name="X(1,3,11)" index="76690" value="1"/>
  <variable name="X(1,38,31)" index="77775" value="1"/>
  <variable name="X(2,3,31)" index="78840" value="1"/>
  <variable name="X(2,39,603)" index="80477" value="1"/>
  <variable name="X(3,1,31)" index="80970" value="1"/>
  <variable name="X(3,2,603)" index="82607" value="1"/>
  <variable name="X(3,4,438)" index="83507" value="1"/>
  <variable name="X(3,21,11)" index="84145" value="1"/>
  <variable name="X(3,31,97)" index="85296" value="1"/>
  <variable name="X(3,40,958)" index="87222" value="1"/>
  <variable name="X(4,3,97)" index="87426" value="1"/>
  <variable name="X(4,41,438)" index="88832" value="1"/>
  <variable name="X(5,6,791)" index="90250" value="1"/>
  <variable name="X(5,28,427)" index="90951" value="1"/>
  <variable name="X(5,42,343)" index="91932" value="1"/>
  <variable name="X(6,5,343)" index="92997" value="1"/>
  <variable name="X(6,9,802)" index="94521" value="1"/>
  <variable name="X(6,43,791)" index="95575" value="1"/>
  <variable name="X(7,8,7)" index="95856" value="1"/>
  <variable name="X(7,29,218)" index="97132" value="1"/>
  <variable name="X(7,44,97)" index="98076" value="1"/>
  <variable name="X(8,7,218)" index="99262" value="1"/>
  <variable name="X(8,45,7)" index="100116" value="1"/>
  <variable name="X(9,6,343)" index="101517" value="1"/>
  <variable name="X(9,10,380)" index="102619" value="1"/>
  <variable name="X(9,16,802)" index="104106" value="1"/>
  <variable name="X(9,21,657)" index="105026" value="1"/>
  <variable name="X(9,35,497)" index="105931" value="1"/>
  <variable name="X(9,46,1043)" index="107542" value="1"/>
  <variable name="X(10,9,657)" index="108221" value="1"/>
  <variable name="X(10,23,273)" index="108902" value="1"/>
  <variable name="X(10,47,380)" index="110074" value="1"/>
  <variable name="X(11,25,293)" index="111052" value="1"/>
  <variable name="X(11,48,169)" index="111993" value="1"/>
  <variable name="X(12,21,321)" index="113210" value="1"/>
  <variable name="X(12,49,382)" index="114336" value="1"/>
  <variable name="X(13,21,343)" index="115362" value="1"/>
  <variable name="X(13,50,11)" index="116095" value="1"/>
  <variable name="X(14,21,382)" index="117531" value="1"/>
  <variable name="X(14,51,550)" index="118764" value="1"/>
  <variable name="X(15,16,423)" index="119702" value="1"/>
  <variable name="X(15,21,429)" index="120773" value="1"/>
  <variable name="X(15,52,616)" index="122025" value="1"/>
  <variable name="X(16,9,497)" index="122971" value="1"/>
  <variable name="X(16,15,616)" index="124155" value="1"/>
  <variable name="X(16,17,802)" index="125406" value="1"/>
  <variable name="X(16,21,603)" index="126272" value="1"/>
  <variable name="X(16,22,423)" index="127157" value="1"/>
  <variable name="X(16,53,293)" index="128092" value="1"/>
  <variable name="X(17,16,497)" index="129361" value="1"/>
  <variable name="X(17,54,802)" index="130731" value="1"/>
  <variable name="X(18,19,503)" index="131497" value="1"/>
  <variable name="X(18,55,740)" index="132799" value="1"/>
  <variable name="X(19,18,740)" index="133864" value="1"/>
  <variable name="X(19,25,503)" index="134692" value="1"/>
  <variable name="X(19,56,17)" index="135271" value="1"/>
  <variable name="X(20,21,550)" index="136869" value="1"/>
  <variable name="X(20,57,453)" index="137837" value="1"/>
  <variable name="X(21,3,603)" index="139052" value="1"/>
  <variable name="X(21,9,343)" index="139857" value="1"/>
  <variable name="X(21,12,382)" index="140961" value="1"/>
  <variable name="X(21,13,11)" index="141655" value="1"/>
  <variable name="X(21,14,550)" index="143259" value="1"/>
  <variable name="X(21,15,321)" index="144095" value="1"/>
  <variable name="X(21,16,293)" index="145132" value="1"/>
  <variable name="X(21,20,453)" index="146357" value="1"/>
  <variable name="X(21,25,870)" index="147839" value="1"/>
  <variable name="X(21,27,657)" index="148691" value="1"/>
  <variable name="X(21,31,429)" index="149528" value="1"/>
  <variable name="X(21,58,678)" index="150842" value="1"/>
  <variable name="X(22,16,616)" index="151845" value="1"/>
  <variable name="X(22,23,423)" index="152717" value="1"/>
  <variable name="X(22,59,273)" index="153632" value="1"/>
  <variable name="X(23,10,657)" index="155081" value="1"/>
  <variable name="X(23,22,273)" index="155762" value="1"/>
  <variable name="X(23,60,423)" index="156977" value="1"/>
  <variable name="X(24,27,678)" index="158297" value="1"/>
  <variable name="X(25,11,169)" index="158853" value="1"/>
  <variable name="X(25,19,740)" index="160489" value="1"/>
  <variable name="X(25,21,293)" index="161107" value="1"/>
  <variable name="X(25,26,870)" index="162749" value="1"/>
  <variable name="X(25,29,562)" index="163506" value="1"/>
  <variable name="X(25,62,503)" index="164512" value="1"/>
  <variable name="X(26,25,740)" index="165814" value="1"/>
  <variable name="X(26,63,870)" index="167009" value="1"/>
  <variable name="X(27,21,678)" index="167882" value="1"/>
  <variable name="X(27,64,657)" index="168926" value="1"/>
  <variable name="X(28,5,791)" index="170125" value="1"/>
  <variable name="X(28,65,427)" index="170826" value="1"/>
  <variable name="X(29,7,97)" index="171561" value="1"/>
  <variable name="X(29,25,169)" index="172698" value="1"/>
  <variable name="X(29,31,218)" index="173812" value="0.99999999999999989"/>
  <variable name="X(29,66,562)" index="175221" value="1"/>
  <variable name="X(30,31,870)" index="176594" value="1"/>
  <variable name="X(30,67,429)" index="177218" value="1"/>
  <variable name="X(31,3,958)" index="178812" value="1"/>
  <variable name="X(31,21,870)" index="179789" value="1"/>
  <variable name="X(31,29,97)" index="180081" value="1"/>
  <variable name="X(31,30,429)" index="181478" value="1"/>
  <variable name="X(31,32,218)" index="182332" value="1"/>
  <variable name="X(31,35,90)" index="183269" value="1"/>
  <variable name="X(31,68,956)" index="185200" value="1"/>
  <variable name="X(32,31,956)" index="186265" value="1"/>
  <variable name="X(32,33,28)" index="186402" value="1"/>
  <variable name="X(32,69,218)" index="187657" value="1"/>
  <variable name="X(33,32,956)" index="189460" value="1"/>
  <variable name="X(33,70,28)" index="189597" value="1"/>
  <variable name="X(34,35,958)" index="191592" value="1"/>
  <variable name="X(34,71,90)" index="191789" value="1"/>
  <variable name="X(35,9,1043)" index="193807" value="1"/>
  <variable name="X(35,31,958)" index="194787" value="1"/>
  <variable name="X(35,34,90)" index="194984" value="1"/>
  <variable name="X(35,36,723)" index="196682" value="1"/>
  <variable name="X(35,72,497)" index="197521" value="1"/>
  <variable name="X(36,35,1043)" index="199132" value="1"/>
  <variable name="X(36,73,723)" index="199877" value="1"/>
  <variable name="X(37,36,1043)" index="201262" value="1"/>
  <variable name="C(7,8)" index="201314" value="1"/>
  <variable name="C(11,3)" index="201329" value="1"/>
  <variable name="C(11,21)" index="201330" value="2"/>
  <variable name="C(11,13)" index="201331" value="3"/>
  <variable name="C(28,33)" index="201409" value="1"/>
  <variable name="C(31,3)" index="201420" value="1"/>
  <variable name="C(31,1)" index="201421" value="2"/>
  <variable name="C(90,35)" index="201656" value="1"/>
  <variable name="C(90,34)" index="201657" value="2"/>
  <variable name="C(97,3)" index="201682" value="1"/>
  <variable name="C(97,31)" index="201683" value="2"/>
  <variable name="C(97,29)" index="201684" value="3"/>
  <variable name="C(97,7)" index="201685" value="4"/>
  <variable name="C(169,25)" index="202029" value="1"/>
  <variable name="C(169,11)" index="202030" value="2"/>
  <variable name="C(218,7)" index="202287" value="1"/>
  <variable name="C(218,29)" index="202288" value="2"/>
  <variable name="C(218,31)" index="202289" value="3"/>
  <variable name="C(218,32)" index="202290" value="4"/>
  <variable name="C(273,23)" index="202500" value="1"/>
  <variable name="C(273,22)" index="202501" value="2"/>
  <variable name="C(293,25)" index="202588" value="1"/>
  <variable name="C(293,21)" index="202589" value="2"/>
  <variable name="C(293,16)" index="202590" value="3"/>
  <variable name="C(321,21)" index="202708" value="1"/>
  <variable name="C(343,21)" index="202795" value="1"/>
  <variable name="C(343,9)" index="202796" value="2"/>
  <variable name="C(343,6)" index="202797" value="3"/>
  <variable name="C(343,5)" index="202798" value="4"/>
  <variable name="C(380,10)" index="202947" value="1"/>
  <variable name="C(382,21)" index="202953" value="1"/>
  <variable name="C(382,12)" index="202954" value="2"/>
  <variable name="C(423,16)" index="203108" value="1"/>
  <variable name="C(423,22)" index="203109" value="2"/>
  <variable name="C(423,23)" index="203110" value="3"/>
  <variable name="C(427,28)" index="203126" value="1"/>
  <variable name="C(429,21)" index="203132" value="1"/>
  <variable name="C(429,31)" index="203133" value="2"/>
  <variable name="C(429,30)" index="203134" value="3"/>
  <variable name="C(438,4)" index="203170" value="1"/>
  <variable name="C(453,20)" index="203222" value="1"/>
  <variable name="C(497,16)" index="203403" value="1"/>
  <variable name="C(497,9)" index="203404" value="2"/>
  <variable name="C(497,35)" index="203405" value="3"/>
  <variable name="C(503,19)" index="203431" value="1"/>
  <variable name="C(503,25)" index="203432" value="2"/>
  <variable name="C(550,21)" index="203635" value="1"/>
  <variable name="C(550,14)" index="203636" value="2"/>
  <variable name="C(562,29)" index="203683" value="1"/>
  <variable name="C(603,21)" index="203816" value="1"/>
  <variable name="C(603,3)" index="203817" value="2"/>
  <variable name="C(603,2)" index="203818" value="3"/>
  <variable name="C(616,16)" index="203874" value="1"/>
  <variable name="C(616,15)" index="203875" value="2"/>
  <variable name="C(657,10)" index="204065" value="1"/>
  <variable name="C(657,9)" index="204066" value="2"/>
  <variable name="C(657,21)" index="204067" value="3"/>
  <variable name="C(657,27)" index="204068" value="4"/>
  <variable name="C(678,27)" index="204176" value="1"/>
  <variable name="C(678,21)" index="204177" value="2"/>
  <variable name="C(723,36)" index="204358" value="1"/>
  <variable name="C(740,25)" index="204433" value="1"/>
  <variable name="C(740,19)" index="204434" value="2"/>
  <variable name="C(740,18)" index="204435" value="3"/>
  <variable name="C(791,5)" index="204653" value="1"/>
  <variable name="C(791,6)" index="204654" value="2"/>
  <variable name="C(802,9)" index="204720" value="1"/>
  <variable name="C(802,16)" index="204721" value="2"/>
  <variable name="C(802,17)" index="204722" value="3"/>
  <variable name="C(870,31)" index="205033" value="1"/>
  <variable name="C(870,21)" index="205034" value="2"/>
  <variable name="C(870,25)" index="205035" value="3"/>
  <variable name="C(870,26)" index="205036" value="4"/>
  <variable name="C(956,32)" index="205379" value="1"/>
  <variable name="C(956,31)" index="205380" value="2"/>
  <variable name="C(958,35)" index="205386" value="1"/>
  <variable name="C(958,31)" index="205387" value="2"/>
  <variable name="C(958,3)" index="205388" value="3"/>
  <variable name="C(1043,36)" index="205759" value="1"/>
  <variable name="C(1043,35)" index="205760" value="2"/>
  <variable name="C(1043,9)" index="205761" value="3"/>
 </variables>
</CPLEXSolution>
